NAME          
ROWS
 N  OBJ
 L  c1
 L  c2
 L  c3
COLUMNS
    MARKER    'MARKER'                 'INTORG'
    x[1]      c1        864
    x[1]      c2        854
    x[1]      c3        788
    x[1]      OBJ       -720
    x[2]      c1        822
    x[2]      c2        428
    x[2]      c3        948
    x[2]      OBJ       -482
    x[3]      c1        839
    x[3]      c2        250
    x[3]      c3        70
    x[3]      OBJ       -631
    x[4]      c1        204
    x[4]      c2        978
    x[4]      c3        52
    x[4]      OBJ       -799
    x[5]      c1        58
    x[5]      c2        607
    x[5]      c3        430
    x[5]      OBJ       -231
    x[6]      c1        441
    x[6]      c2        24
    x[6]      c3        948
    x[6]      OBJ       -857
    x[7]      c1        957
    x[7]      c2        795
    x[7]      c3        369
    x[7]      OBJ       -153
    x[8]      c1        967
    x[8]      c2        983
    x[8]      c3        867
    x[8]      OBJ       -123
    x[9]      c1        540
    x[9]      c2        20
    x[9]      c3        875
    x[9]      OBJ       -755
    x[10]     c1        126
    x[10]     c2        271
    x[10]     c3        406
    x[10]     OBJ       -795
    x[11]     c1        398
    x[11]     c2        237
    x[11]     c3        142
    x[11]     OBJ       -101
    x[12]     c1        411
    x[12]     c2        811
    x[12]     c3        486
    x[12]     OBJ       -881
    x[13]     c1        929
    x[13]     c2        310
    x[13]     c3        1000
    x[13]     OBJ       -456
    x[14]     c1        564
    x[14]     c2        881
    x[14]     c3        349
    x[14]     OBJ       -50
    x[15]     c1        189
    x[15]     c2        819
    x[15]     c3        220
    x[15]     OBJ       -937
    x[16]     c1        998
    x[16]     c2        666
    x[16]     c3        351
    x[16]     OBJ       -106
    x[17]     c1        7
    x[17]     c2        45
    x[17]     c3        751
    x[17]     OBJ       -936
    x[18]     c1        467
    x[18]     c2        764
    x[18]     c3        899
    x[18]     OBJ       -950
    x[19]     c1        866
    x[19]     c2        139
    x[19]     c3        127
    x[19]     OBJ       -76
    x[20]     c1        36
    x[20]     c2        459
    x[20]     c3        272
    x[20]     OBJ       -716
    x[21]     c1        174
    x[21]     c2        572
    x[21]     c3        366
    x[21]     OBJ       -798
    x[22]     c1        743
    x[22]     c2        264
    x[22]     c3        450
    x[22]     OBJ       -166
    x[23]     c1        223
    x[23]     c2        98
    x[23]     c3        129
    x[23]     OBJ       -572
    x[24]     c1        274
    x[24]     c2        195
    x[24]     c3        855
    x[24]     OBJ       -965
    x[25]     c1        458
    x[25]     c2        310
    x[25]     c3        253
    x[25]     OBJ       -115
    x[26]     c1        714
    x[26]     c2        658
    x[26]     c3        982
    x[26]     OBJ       -93
    x[27]     c1        153
    x[27]     c2        357
    x[27]     c3        510
    x[27]     OBJ       -575
    x[28]     c1        778
    x[28]     c2        697
    x[28]     c3        349
    x[28]     OBJ       -486
    x[29]     c1        995
    x[29]     c2        522
    x[29]     c3        533
    x[29]     OBJ       -520
    x[30]     c1        894
    x[30]     c2        286
    x[30]     c3        475
    x[30]     OBJ       -905
RHS
    rhs       c1        8044
    rhs       c2        7150
    rhs       c3        7626
RANGES
BOUNDS
 LO bounds    x[1]      0
 PL bounds    x[1]
 LO bounds    x[2]      0
 PL bounds    x[2]
 LO bounds    x[3]      0
 PL bounds    x[3]
 LO bounds    x[4]      0
 PL bounds    x[4]
 LO bounds    x[5]      0
 PL bounds    x[5]
 LO bounds    x[6]      0
 PL bounds    x[6]
 LO bounds    x[7]      0
 PL bounds    x[7]
 LO bounds    x[8]      0
 PL bounds    x[8]
 LO bounds    x[9]      0
 PL bounds    x[9]
 LO bounds    x[10]     0
 PL bounds    x[10]
 LO bounds    x[11]     0
 PL bounds    x[11]
 LO bounds    x[12]     0
 PL bounds    x[12]
 LO bounds    x[13]     0
 PL bounds    x[13]
 LO bounds    x[14]     0
 PL bounds    x[14]
 LO bounds    x[15]     0
 PL bounds    x[15]
 LO bounds    x[16]     0
 PL bounds    x[16]
 LO bounds    x[17]     0
 PL bounds    x[17]
 LO bounds    x[18]     0
 PL bounds    x[18]
 LO bounds    x[19]     0
 PL bounds    x[19]
 LO bounds    x[20]     0
 PL bounds    x[20]
 LO bounds    x[21]     0
 PL bounds    x[21]
 LO bounds    x[22]     0
 PL bounds    x[22]
 LO bounds    x[23]     0
 PL bounds    x[23]
 LO bounds    x[24]     0
 PL bounds    x[24]
 LO bounds    x[25]     0
 PL bounds    x[25]
 LO bounds    x[26]     0
 PL bounds    x[26]
 LO bounds    x[27]     0
 PL bounds    x[27]
 LO bounds    x[28]     0
 PL bounds    x[28]
 LO bounds    x[29]     0
 PL bounds    x[29]
 LO bounds    x[30]     0
 PL bounds    x[30]
ENDATA
